p edge 50 103 10
v 3 4 5 35
v 6 2 7 23 24 29 43
v 3 10 12 28
v 8 3 15 16 21 22 34 38 46
v 2 25 50
v 6 8 9 11 33 36 40
v 5 18 30 31 32 44
v 4 26 37 47 48
v 5 1 19 20 27 41
v 8 6 13 14 17 39 42 45 49
e 1 2
e 1 3
e 1 19
e 2 11
e 3 17
e 3 25
e 4 12
e 4 47
e 5 8
e 5 22
e 5 39
e 5 42
e 5 45
e 6 12
e 6 15
e 6 20
e 6 22
e 6 46
e 6 50
e 7 11
e 7 18
e 7 21
e 7 34
e 7 40
e 7 41
e 7 49
e 9 12
e 9 18
e 9 37
e 9 41
e 10 16
e 11 14
e 12 26
e 12 33
e 12 35
e 13 34
e 13 43
e 13 48
e 14 22
e 14 27
e 14 30
e 15 21
e 15 28
e 15 29
e 15 40
e 15 50
e 16 18
e 16 24
e 16 29
e 16 33
e 16 40
e 16 41
e 16 45
e 17 27
e 17 29
e 19 23
e 19 34
e 19 37
e 19 46
e 19 49
e 20 24
e 20 37
e 20 39
e 20 46
e 21 31
e 22 41
e 23 24
e 23 27
e 23 32
e 23 33
e 23 47
e 23 50
e 25 37
e 25 46
e 25 47
e 25 48
e 26 27
e 26 42
e 27 36
e 28 38
e 28 39
e 28 42
e 28 49
e 30 36
e 30 41
e 30 45
e 30 46
e 31 39
e 32 36
e 33 35
e 33 47
e 34 37
e 34 47
e 35 48
e 36 40
e 38 41
e 38 46
e 39 44
e 39 46
e 40 46
e 41 50
e 42 43
e 43 48
